benchmarks/clamp_value/medium.solution
Problem: clamp_value
Difficulty: medium
Type: DEBUG SOLUTION (Expected)
Status: VERIFIED
Solution: ifelse(x < min_val, min_val, ifelse(x > max_val, max_val, x))

Verification Result:
    ✓ VERIFIED: All constraints satisfied
Z3 Status: unsat
